####################################################################### 
# 
# This file contains crystal structure data downloaded from the 
# Cambridge Structural Database (CSD) hosted by the Cambridge 
# Crystallographic Data Centre (CCDC).
# 
# Full information about CCDC data access policies and citation 
# guidelines are available at http://www.ccdc.cam.ac.uk/access/V1 
# 
# Audit and citation data items may have been added by the CCDC. 
# Please retain this information to preserve the provenance of 
# this file and to allow appropriate attribution of the data. 
# 
#######################################################################

data_bn205
_audit_block_doi                 10.5517/ccwv764
_database_code_depnum_ccdc_archive 'CCDC 829566'
loop_
_citation_id
_citation_doi
_citation_year
1 10.1016/j.poly.2012.06.030 2012
_audit_update_record             
;
2011-06-14 deposited with the CCDC.	2025-09-23 downloaded from the CCDC.
;
#TrackingRef 'web_deposit_cif_file_2_ZhiminLi_1308020769.Zn.cif'


_audit_creation_method           SHELXL-97
_chemical_name_systematic        
;
?
;
_chemical_name_common            ?
_chemical_melting_point          ?
_chemical_formula_moiety         ?
_chemical_formula_sum            'C12 H16 Cl2 N8 O8 Zn'
_chemical_formula_weight         536.60

loop_
_atom_type_symbol
_atom_type_description
_atom_type_scat_dispersion_real
_atom_type_scat_dispersion_imag
_atom_type_scat_source
C C 0.0033 0.0016 'International Tables Vol C Tables 4.2.6.8 and 6.1.1.4'
H H 0.0000 0.0000 'International Tables Vol C Tables 4.2.6.8 and 6.1.1.4'
N N 0.0061 0.0033 'International Tables Vol C Tables 4.2.6.8 and 6.1.1.4'
O O 0.0106 0.0060 'International Tables Vol C Tables 4.2.6.8 and 6.1.1.4'
Cl Cl 0.1484 0.1585 'International Tables Vol C Tables 4.2.6.8 and 6.1.1.4'
Zn Zn 0.2839 1.4301 'International Tables Vol C Tables 4.2.6.8 and 6.1.1.4'

_symmetry_cell_setting           ?
_symmetry_space_group_name_H-M   ?

loop_
_symmetry_equiv_pos_as_xyz
'x, y, z'
'-x, y, -z+1/2'
'x+1/2, y+1/2, z'
'-x+1/2, y+1/2, -z+1/2'
'-x, -y, -z'
'x, -y, z-1/2'
'-x+1/2, -y+1/2, -z'
'x+1/2, -y+1/2, z-1/2'

_cell_length_a                   18.625(9)
_cell_length_b                   6.662(3)
_cell_length_c                   19.324(9)
_cell_angle_alpha                90.00
_cell_angle_beta                 115.396(5)
_cell_angle_gamma                90.00
_cell_volume                     2166.0(17)
_cell_formula_units_Z            4
_cell_measurement_temperature    93(2)
_cell_measurement_reflns_used    ?
_cell_measurement_theta_min      ?
_cell_measurement_theta_max      ?

_exptl_crystal_description       ?
_exptl_crystal_colour            ?
_exptl_crystal_size_max          0.47
_exptl_crystal_size_mid          0.27
_exptl_crystal_size_min          0.20
_exptl_crystal_density_meas      ?
_exptl_crystal_density_diffrn    1.645
_exptl_crystal_density_method    'not measured'
_exptl_crystal_F_000             1088
_exptl_absorpt_coefficient_mu    1.437
_exptl_absorpt_correction_type   ?
_exptl_absorpt_correction_T_min  0.5534
_exptl_absorpt_correction_T_max  0.7620
_exptl_absorpt_process_details   ?

_exptl_special_details           
;
?
;

_diffrn_ambient_temperature      93(2)
_diffrn_radiation_wavelength     0.71073
_diffrn_radiation_type           MoK\a
_diffrn_radiation_source         'fine-focus sealed tube'
_diffrn_radiation_monochromator  graphite
_diffrn_measurement_device_type  ?
_diffrn_measurement_method       ?
_diffrn_detector_area_resol_mean ?
_diffrn_standards_number         ?
_diffrn_standards_interval_count ?
_diffrn_standards_interval_time  ?
_diffrn_standards_decay_%        ?
_diffrn_reflns_number            8225
_diffrn_reflns_av_R_equivalents  0.0435
_diffrn_reflns_av_sigmaI/netI    0.0567
_diffrn_reflns_limit_h_min       -24
_diffrn_reflns_limit_h_max       24
_diffrn_reflns_limit_k_min       -8
_diffrn_reflns_limit_k_max       8
_diffrn_reflns_limit_l_min       -25
_diffrn_reflns_limit_l_max       22
_diffrn_reflns_theta_min         3.29
_diffrn_reflns_theta_max         27.47
_reflns_number_total             2464
_reflns_number_gt                1834
_reflns_threshold_expression     >2sigma(I)

_computing_data_collection       ?
_computing_cell_refinement       ?
_computing_data_reduction        ?
_computing_structure_solution    'SHELXS-97 (Sheldrick, 1990)'
_computing_structure_refinement  'SHELXL-97 (Sheldrick, 1997)'
_computing_molecular_graphics    ?
_computing_publication_material  ?

_refine_special_details          
;
Refinement of F^2^ against ALL reflections. The weighted R-factor wR and
goodness of fit S are based on F^2^, conventional R-factors R are based
on F, with F set to zero for negative F^2^. The threshold expression of
F^2^ > 2sigma(F^2^) is used only for calculating R-factors(gt) etc. and is
not relevant to the choice of reflections for refinement. R-factors based
on F^2^ are statistically about twice as large as those based on F, and R-
factors based on ALL data will be even larger.
;

_refine_ls_structure_factor_coef Fsqd
_refine_ls_matrix_type           full
_refine_ls_weighting_scheme      calc
_refine_ls_weighting_details     
'calc w=1/[\s^2^(Fo^2^)+(0.0506P)^2^+0.0000P] where P=(Fo^2^+2Fc^2^)/3'
_atom_sites_solution_primary     direct
_atom_sites_solution_secondary   difmap
_atom_sites_solution_hydrogens   geom
_refine_ls_hydrogen_treatment    mixed
_refine_ls_extinction_method     none
_refine_ls_extinction_coef       ?
_refine_ls_number_reflns         2464
_refine_ls_number_parameters     149
_refine_ls_number_restraints     0
_refine_ls_R_factor_all          0.0516
_refine_ls_R_factor_gt           0.0398
_refine_ls_wR_factor_ref         0.1018
_refine_ls_wR_factor_gt          0.0906
_refine_ls_goodness_of_fit_ref   1.004
_refine_ls_restrained_S_all      1.004
_refine_ls_shift/su_max          0.000
_refine_ls_shift/su_mean         0.000

loop_
_atom_site_label
_atom_site_type_symbol
_atom_site_fract_x
_atom_site_fract_y
_atom_site_fract_z
_atom_site_U_iso_or_equiv
_atom_site_adp_type
_atom_site_occupancy
_atom_site_symmetry_multiplicity
_atom_site_calc_flag
_atom_site_refinement_flags
_atom_site_disorder_assembly
_atom_site_disorder_group
Zn1 Zn 0.5000 0.19829(6) 0.2500 0.02496(16) Uani 1 2 d S . .
Cl1 Cl 0.79952(4) 1.01645(10) 0.41861(4) 0.02837(19) Uani 1 1 d . . .
N1 N 0.59600(14) 0.3706(3) 0.29349(12) 0.0261(5) Uani 1 1 d . . .
N2 N 0.69698(16) 0.5441(4) 0.37331(15) 0.0309(6) Uani 1 1 d . . .
N3 N 0.51068(14) 0.0334(3) 0.16914(13) 0.0256(5) Uani 1 1 d . . .
N4 N 0.56474(17) -0.1230(4) 0.10425(14) 0.0328(6) Uani 1 1 d . . .
O1 O 0.84457(15) 0.8482(4) 0.41454(14) 0.0679(8) Uani 1 1 d . . .
O2 O 0.74927(14) 0.9584(4) 0.45345(13) 0.0506(7) Uani 1 1 d . . .
O3 O 0.85122(17) 1.1725(4) 0.46466(13) 0.0631(9) Uani 1 1 d . . .
O4 O 0.75373(15) 1.0879(3) 0.34297(12) 0.0497(7) Uani 1 1 d . . .
C1 C 0.62819(18) 0.4803(4) 0.25269(16) 0.0322(7) Uani 1 1 d . . .
H1 H 0.6092 0.4795 0.1985 0.039 Uiso 1 1 calc R . .
C2 C 0.69019(18) 0.5875(4) 0.30117(16) 0.0326(7) Uani 1 1 d . . .
H2 H 0.7228 0.6756 0.2884 0.039 Uiso 1 1 calc R . .
C3 C 0.64023(17) 0.4133(4) 0.36671(15) 0.0280(6) Uani 1 1 d . . .
H3 H 0.6326 0.3586 0.4084 0.034 Uiso 1 1 calc R . .
C4 C 0.45236(18) -0.0720(4) 0.11015(17) 0.0345(7) Uani 1 1 d . . .
H4 H 0.3976 -0.0759 0.0995 0.041 Uiso 1 1 calc R . .
C5 C 0.4863(2) -0.1692(4) 0.06999(17) 0.0374(8) Uani 1 1 d . . .
H5 H 0.4603 -0.2530 0.0265 0.045 Uiso 1 1 calc R . .
C6 C 0.57775(17) -0.0009(4) 0.16354(16) 0.0278(6) Uani 1 1 d . . .
H6 H 0.6280 0.0532 0.1967 0.033 Uiso 1 1 calc R . .
H2N H 0.7314(18) 0.589(5) 0.4134(17) 0.031(9) Uiso 1 1 d . . .
H4N H 0.5975(19) -0.175(4) 0.0911(18) 0.033(9) Uiso 1 1 d . . .

loop_
_atom_site_aniso_label
_atom_site_aniso_U_11
_atom_site_aniso_U_22
_atom_site_aniso_U_33
_atom_site_aniso_U_23
_atom_site_aniso_U_13
_atom_site_aniso_U_12
Zn1 0.0269(3) 0.0288(3) 0.0206(2) 0.000 0.0115(2) 0.000
Cl1 0.0302(4) 0.0346(4) 0.0203(3) -0.0037(3) 0.0108(3) -0.0069(3)
N1 0.0318(13) 0.0272(12) 0.0198(11) 0.0020(10) 0.0116(10) -0.0031(11)
N2 0.0331(14) 0.0338(14) 0.0208(13) -0.0051(11) 0.0069(12) -0.0044(12)
N3 0.0242(12) 0.0308(13) 0.0216(11) -0.0019(10) 0.0097(10) -0.0024(10)
N4 0.0420(16) 0.0317(14) 0.0332(14) -0.0015(12) 0.0243(13) 0.0066(12)
O1 0.0495(16) 0.092(2) 0.0409(15) -0.0125(14) -0.0007(13) 0.0418(15)
O2 0.0574(16) 0.0697(16) 0.0347(13) -0.0131(12) 0.0291(12) -0.0355(13)
O3 0.087(2) 0.0807(19) 0.0320(13) -0.0256(12) 0.0349(13) -0.0630(16)
O4 0.0714(17) 0.0465(13) 0.0234(11) 0.0050(10) 0.0129(12) 0.0146(13)
C1 0.0397(17) 0.0362(17) 0.0207(14) 0.0004(13) 0.0129(14) -0.0076(14)
C2 0.0373(17) 0.0340(17) 0.0274(15) -0.0011(14) 0.0147(14) -0.0086(14)
C3 0.0359(16) 0.0290(15) 0.0210(14) -0.0028(13) 0.0141(13) -0.0026(13)
C4 0.0269(15) 0.0385(17) 0.0323(16) -0.0038(14) 0.0071(13) -0.0051(14)
C5 0.046(2) 0.0331(17) 0.0250(15) -0.0063(14) 0.0076(15) -0.0015(15)
C6 0.0277(15) 0.0261(14) 0.0290(15) -0.0008(13) 0.0118(13) -0.0007(12)

_geom_special_details            
;
All esds (except the esd in the dihedral angle between two l.s. planes)
are estimated using the full covariance matrix. The cell esds are taken
into account individually in the estimation of esds in distances, angles
and torsion angles; correlations between esds in cell parameters are only
used when they are defined by crystal symmetry. An approximate (isotropic)
treatment of cell esds is used for estimating esds involving l.s. planes.
;

loop_
_geom_bond_atom_site_label_1
_geom_bond_atom_site_label_2
_geom_bond_distance
_geom_bond_site_symmetry_2
_geom_bond_publ_flag
Zn1 N1 1.983(2) . ?
Zn1 N1 1.983(2) 2_655 ?
Zn1 N3 1.989(2) 2_655 ?
Zn1 N3 1.989(2) . ?
Cl1 O2 1.421(2) . ?
Cl1 O4 1.422(2) . ?
Cl1 O1 1.422(2) . ?
Cl1 O3 1.437(2) . ?
N1 C3 1.327(3) . ?
N1 C1 1.386(3) . ?
N2 C3 1.333(4) . ?
N2 C2 1.375(4) . ?
N2 H2N 0.82(3) . ?
N3 C6 1.319(3) . ?
N3 C4 1.382(4) . ?
N4 C6 1.340(4) . ?
N4 C5 1.355(4) . ?
N4 H4N 0.83(3) . ?
C1 C2 1.339(4) . ?
C1 H1 0.9500 . ?
C2 H2 0.9500 . ?
C3 H3 0.9500 . ?
C4 C5 1.358(4) . ?
C4 H4 0.9500 . ?
C5 H5 0.9500 . ?
C6 H6 0.9500 . ?

loop_
_geom_angle_atom_site_label_1
_geom_angle_atom_site_label_2
_geom_angle_atom_site_label_3
_geom_angle
_geom_angle_site_symmetry_1
_geom_angle_site_symmetry_3
_geom_angle_publ_flag
N1 Zn1 N1 109.26(14) . 2_655 ?
N1 Zn1 N3 111.26(9) . 2_655 ?
N1 Zn1 N3 106.08(9) 2_655 2_655 ?
N1 Zn1 N3 106.07(9) . . ?
N1 Zn1 N3 111.26(9) 2_655 . ?
N3 Zn1 N3 112.94(13) 2_655 . ?
O2 Cl1 O4 110.58(16) . . ?
O2 Cl1 O1 109.64(17) . . ?
O4 Cl1 O1 108.35(14) . . ?
O2 Cl1 O3 107.82(14) . . ?
O4 Cl1 O3 109.98(15) . . ?
O1 Cl1 O3 110.48(18) . . ?
C3 N1 C1 105.7(2) . . ?
C3 N1 Zn1 127.63(19) . . ?
C1 N1 Zn1 126.55(19) . . ?
C3 N2 C2 108.4(2) . . ?
C3 N2 H2N 127(2) . . ?
C2 N2 H2N 125(2) . . ?
C6 N3 C4 106.3(2) . . ?
C6 N3 Zn1 125.27(19) . . ?
C4 N3 Zn1 128.4(2) . . ?
C6 N4 C5 108.5(3) . . ?
C6 N4 H4N 129(2) . . ?
C5 N4 H4N 122(2) . . ?
C2 C1 N1 109.7(3) . . ?
C2 C1 H1 125.2 . . ?
N1 C1 H1 125.2 . . ?
C1 C2 N2 105.9(3) . . ?
C1 C2 H2 127.1 . . ?
N2 C2 H2 127.1 . . ?
N1 C3 N2 110.3(2) . . ?
N1 C3 H3 124.9 . . ?
N2 C3 H3 124.9 . . ?
C5 C4 N3 108.6(3) . . ?
C5 C4 H4 125.7 . . ?
N3 C4 H4 125.7 . . ?
N4 C5 C4 106.3(3) . . ?
N4 C5 H5 126.8 . . ?
C4 C5 H5 126.8 . . ?
N3 C6 N4 110.2(3) . . ?
N3 C6 H6 124.9 . . ?
N4 C6 H6 124.9 . . ?

loop_
_geom_torsion_atom_site_label_1
_geom_torsion_atom_site_label_2
_geom_torsion_atom_site_label_3
_geom_torsion_atom_site_label_4
_geom_torsion
_geom_torsion_site_symmetry_1
_geom_torsion_site_symmetry_2
_geom_torsion_site_symmetry_3
_geom_torsion_site_symmetry_4
_geom_torsion_publ_flag
N1 Zn1 N1 C3 102.4(2) 2_655 . . . ?
N3 Zn1 N1 C3 -14.4(3) 2_655 . . . ?
N3 Zn1 N1 C3 -137.5(2) . . . . ?
N1 Zn1 N1 C1 -73.8(2) 2_655 . . . ?
N3 Zn1 N1 C1 169.4(2) 2_655 . . . ?
N3 Zn1 N1 C1 46.2(2) . . . . ?
N1 Zn1 N3 C6 19.8(2) . . . . ?
N1 Zn1 N3 C6 138.5(2) 2_655 . . . ?
N3 Zn1 N3 C6 -102.4(2) 2_655 . . . ?
N1 Zn1 N3 C4 -162.5(2) . . . . ?
N1 Zn1 N3 C4 -43.8(3) 2_655 . . . ?
N3 Zn1 N3 C4 75.3(2) 2_655 . . . ?
C3 N1 C1 C2 -0.5(3) . . . . ?
Zn1 N1 C1 C2 176.4(2) . . . . ?
N1 C1 C2 N2 0.1(3) . . . . ?
C3 N2 C2 C1 0.3(3) . . . . ?
C1 N1 C3 N2 0.7(3) . . . . ?
Zn1 N1 C3 N2 -176.17(18) . . . . ?
C2 N2 C3 N1 -0.7(3) . . . . ?
C6 N3 C4 C5 0.2(3) . . . . ?
Zn1 N3 C4 C5 -177.88(19) . . . . ?
C6 N4 C5 C4 0.0(3) . . . . ?
N3 C4 C5 N4 -0.1(3) . . . . ?
C4 N3 C6 N4 -0.2(3) . . . . ?
Zn1 N3 C6 N4 177.92(17) . . . . ?
C5 N4 C6 N3 0.2(3) . . . . ?

_diffrn_measured_fraction_theta_max 0.992
_diffrn_reflns_theta_full        27.47
_diffrn_measured_fraction_theta_full 0.992
_refine_diff_density_max         0.589
_refine_diff_density_min         -0.713
_refine_diff_density_rms         0.091
